
Gurobi 9.5.2 (mac64[arm]) logging started Mon May  1 22:03:28 2023

Set parameter LogFile to value "Java/output/special_iterative/scenario_seed_2_nJob_40_machineCount_2/mip_increment_2/log.txt"
Gurobi Optimizer version 9.5.2 build v9.5.2rc0 (mac64[arm])
Thread count: 8 physical cores, 8 logical processors, using up to 8 threads
Optimize a model with 1217 rows, 7488 columns and 53090 nonzeros
Model fingerprint: 0xe9a48a2d
Variable types: 0 continuous, 7488 integer (7488 binary)
Coefficient statistics:
  Matrix range     [1e+00, 2e+02]
  Objective range  [2e+01, 4e+06]
  Bounds range     [1e+00, 1e+00]
  RHS range        [1e+00, 1e+00]
Presolve removed 90 rows and 801 columns
Presolve time: 0.06s
Presolved: 1127 rows, 6687 columns, 46839 nonzeros
Variable types: 0 continuous, 6687 integer (6683 binary)

Root relaxation: objective 8.760408e+03, 1032 iterations, 0.03 seconds (0.04 work units)

    Nodes    |    Current Node    |     Objective Bounds      |     Work
 Expl Unexpl |  Obj  Depth IntInf | Incumbent    BestBd   Gap | It/Node Time

     0     0 8760.40816    0   38          - 8760.40816      -     -    0s
H    0     0                    2022480.0000 8760.40816   100%     -    0s
H    0     0                    10960.000000 8760.40816  20.1%     -    0s
H    0     0                    10320.000000 8760.40816  15.1%     -    0s
     0     0 8769.95282    0   65 10320.0000 8769.95282  15.0%     -    0s
     0     0 8769.95282    0   43 10320.0000 8769.95282  15.0%     -    0s
H    0     0                    10080.000000 8769.95282  13.0%     -    0s
     0     0 8771.83465    0  114 10080.0000 8771.83465  13.0%     -    0s
H    0     0                    9040.0000000 8771.83465  2.97%     -    0s
     0     0 8781.28645    0  117 9040.00000 8781.28645  2.86%     -    0s
H    0     0                    9008.0000000 8781.28645  2.52%     -    0s
     0     0 8782.20882    0  121 9008.00000 8782.20882  2.51%     -    0s
     0     0 8782.79873    0  117 9008.00000 8782.79873  2.50%     -    0s
     0     0 8782.79873    0  123 9008.00000 8782.79873  2.50%     -    0s
     0     0 8788.06349    0  131 9008.00000 8788.06349  2.44%     -    0s
H    0     0                    8912.0000000 8788.06349  1.39%     -    0s
     0     0 8788.62549    0  136 8912.00000 8788.62549  1.38%     -    0s
     0     0 8788.77419    0  140 8912.00000 8788.77419  1.38%     -    0s
     0     0 8788.88989    0  136 8912.00000 8788.88989  1.38%     -    0s
     0     0 8788.88989    0  141 8912.00000 8788.88989  1.38%     -    0s
H    0     0                    8896.0000000 8788.88989  1.20%     -    0s
     0     0 8790.33766    0  102 8896.00000 8790.33766  1.19%     -    0s
     0     0 8790.33766    0   45 8896.00000 8790.33766  1.19%     -    0s
     0     0 8790.33766    0  118 8896.00000 8790.33766  1.19%     -    0s
H    0     0                    8880.0000000 8790.33766  1.01%     -    0s
     0     0 8790.33766    0  118 8880.00000 8790.33766  1.01%     -    0s
     0     0 8790.33766    0  122 8880.00000 8790.33766  1.01%     -    0s
     0     0 8790.33766    0  109 8880.00000 8790.33766  1.01%     -    0s
     0     0 8790.46809    0  116 8880.00000 8790.46809  1.01%     -    0s
     0     0 8790.46809    0  115 8880.00000 8790.46809  1.01%     -    0s
     0     0 8790.74214    0  139 8880.00000 8790.74214  1.01%     -    0s
H    0     0                    8848.0000000 8790.74214  0.65%     -    0s
     0     0 8790.74214    0  139 8848.00000 8790.74214  0.65%     -    0s
     0     0 8791.98734    0  143 8848.00000 8791.98734  0.63%     -    0s
H    0     0                    8816.0000000 8791.98734  0.27%     -    0s
     0     0 8792.14294    0  149 8816.00000 8792.14294  0.27%     -    0s
     0     0 8792.14440    0  130 8816.00000 8792.14440  0.27%     -    0s
     0     0 8794.43549    0  112 8816.00000 8794.43549  0.24%     -    0s
     0     0 8794.43549    0   33 8816.00000 8794.43549  0.24%     -    0s
     0     0 8794.43549    0   97 8816.00000 8794.43549  0.24%     -    0s
     0     0 8795.41566    0  103 8816.00000 8795.41566  0.23%     -    0s
     0     0 8796.27907    0   98 8816.00000 8796.27907  0.22%     -    0s
     0     0 8797.23298    0  113 8816.00000 8797.23298  0.21%     -    0s
     0     0 8797.85714    0  110 8816.00000 8797.85714  0.21%     -    0s
     0     0 8797.85714    0  113 8816.00000 8797.85714  0.21%     -    0s
     0     0 8800.00000    0   77 8816.00000 8800.00000  0.18%     -    0s
H    0     0                    8800.0000000 8800.00000  0.00%     -    0s
     0     0 8800.00000    0   77 8800.00000 8800.00000  0.00%     -    0s

Cutting planes:
  Gomory: 1
  Cover: 3
  Clique: 14
  MIR: 6
  GUB cover: 28
  Zero half: 5
  RLT: 5

Explored 1 nodes (7469 simplex iterations) in 0.80 seconds (1.06 work units)
Thread count was 8 (of 8 available processors)

Solution count 10: 8800 8816 8816 ... 10080

Optimal solution found (tolerance 1.00e-04)
Best objective 8.800000000000e+03, best bound 8.800000000000e+03, gap 0.0000%

Gurobi 9.5.2 (mac64[arm]) logging started Mon May  1 22:03:29 2023

Set parameter LogFile to value "Java/output/special_iterative/scenario_seed_2_nJob_40_machineCount_2/mip_increment_2/log.txt"
Gurobi Optimizer version 9.5.2 build v9.5.2rc0 (mac64[arm])
Thread count: 8 physical cores, 8 logical processors, using up to 8 threads
Optimize a model with 1215 rows, 5287 columns and 37617 nonzeros
Model fingerprint: 0xffdc0104
Variable types: 0 continuous, 5287 integer (5287 binary)
Coefficient statistics:
  Matrix range     [1e+00, 2e+02]
  Objective range  [2e+02, 1e+06]
  Bounds range     [1e+00, 1e+00]
  RHS range        [1e+00, 1e+00]
Found heuristic solution: objective 3649364.0000
Presolve removed 388 rows and 712 columns
Presolve time: 0.04s
Presolved: 827 rows, 4575 columns, 31829 nonzeros
Variable types: 0 continuous, 4575 integer (4571 binary)
Found heuristic solution: objective 3182264.0000

Root relaxation: objective 3.195489e+05, 657 iterations, 0.01 seconds (0.02 work units)

    Nodes    |    Current Node    |     Objective Bounds      |     Work
 Expl Unexpl |  Obj  Depth IntInf | Incumbent    BestBd   Gap | It/Node Time

     0     0 319548.898    0   26 3182264.00 319548.898  90.0%     -    0s
H    0     0                    1869160.0000 319548.898  82.9%     -    0s
H    0     0                    1716736.0000 319548.898  81.4%     -    0s
H    0     0                    1038072.0000 319548.898  69.2%     -    0s
H    0     0                    1033924.0000 319548.898  69.1%     -    0s
H    0     0                    723036.00000 320498.527  55.7%     -    0s
     0     0 320498.527    0   59 723036.000 320498.527  55.7%     -    0s
H    0     0                    712140.00000 320498.527  55.0%     -    0s
     0     0 323072.000    0   58 712140.000 323072.000  54.6%     -    0s
     0     0 323494.667    0   60 712140.000 323494.667  54.6%     -    0s
H    0     0                    710852.00000 323494.667  54.5%     -    0s
H    0     0                    644388.00000 323628.000  49.8%     -    0s
     0     0 323628.000    0   58 644388.000 323628.000  49.8%     -    0s
H    0     0                    392180.00000 323628.000  17.5%     -    0s
*    0     0               0    326192.00000 326192.000  0.00%     -    0s

Cutting planes:
  Gomory: 4
  Cover: 5
  Clique: 15
  MIR: 18
  StrongCG: 8
  GUB cover: 26
  Zero half: 13
  RLT: 4

Explored 1 nodes (1243 simplex iterations) in 0.19 seconds (0.29 work units)
Thread count was 8 (of 8 available processors)

Solution count 10: 326192 392180 644388 ... 1.86916e+06

Optimal solution found (tolerance 1.00e-04)
Best objective 3.261920000000e+05, best bound 3.261920000000e+05, gap 0.0000%

Gurobi 9.5.2 (mac64[arm]) logging started Mon May  1 22:03:30 2023

Set parameter LogFile to value "Java/output/special_iterative/scenario_seed_2_nJob_40_machineCount_2/mip_increment_2/log.txt"
Gurobi Optimizer version 9.5.2 build v9.5.2rc0 (mac64[arm])
Thread count: 8 physical cores, 8 logical processors, using up to 8 threads
Optimize a model with 1220 rows, 3666 columns and 24741 nonzeros
Model fingerprint: 0x1845516a
Variable types: 0 continuous, 3666 integer (3666 binary)
Coefficient statistics:
  Matrix range     [1e+00, 2e+02]
  Objective range  [9e+01, 2e+05]
  Bounds range     [1e+00, 1e+00]
  RHS range        [1e+00, 1e+00]
Presolve removed 654 rows and 667 columns
Presolve time: 0.03s
Presolved: 566 rows, 2999 columns, 19573 nonzeros
Variable types: 0 continuous, 2999 integer (2993 binary)
Found heuristic solution: objective 547346.00000

Root relaxation: objective 3.016267e+05, 563 iterations, 0.01 seconds (0.01 work units)

    Nodes    |    Current Node    |     Objective Bounds      |     Work
 Expl Unexpl |  Obj  Depth IntInf | Incumbent    BestBd   Gap | It/Node Time

     0     0 301626.749    0   93 547346.000 301626.749  44.9%     -    0s
H    0     0                    401149.00000 301626.749  24.8%     -    0s
H    0     0                    397429.00000 301626.749  24.1%     -    0s
H    0     0                    376475.00000 301626.749  19.9%     -    0s
H    0     0                    369751.00000 303882.177  17.8%     -    0s
     0     0 303882.177    0  119 369751.000 303882.177  17.8%     -    0s
H    0     0                    334025.00000 303882.177  9.02%     -    0s
     0     0 305111.434    0  119 334025.000 305111.434  8.66%     -    0s
     0     0 305111.434    0  122 334025.000 305111.434  8.66%     -    0s
H    0     0                    311180.00000 305111.434  1.95%     -    0s
     0     0 306583.592    0  112 311180.000 306583.592  1.48%     -    0s
     0     0 306583.592    0   81 311180.000 306583.592  1.48%     -    0s
     0     0 306953.170    0   93 311180.000 306953.170  1.36%     -    0s
H    0     0                    310909.00000 306953.170  1.27%     -    0s
     0     0 307309.424    0  107 310909.000 307309.424  1.16%     -    0s
     0     0 307403.567    0  107 310909.000 307403.567  1.13%     -    0s
     0     0 307405.586    0  100 310909.000 307405.586  1.13%     -    0s
     0     0 307405.823    0  113 310909.000 307405.823  1.13%     -    0s
     0     0 307572.279    0   99 310909.000 307572.279  1.07%     -    0s
     0     0 307661.000    0   97 310909.000 307661.000  1.04%     -    0s
     0     2 308104.318    0   91 310909.000 308104.318  0.90%     -    0s
H    9     6                    309303.00000 308446.540  0.28%  54.3    0s

Cutting planes:
  Gomory: 3
  Cover: 5
  Clique: 11
  MIR: 7
  StrongCG: 3
  GUB cover: 17
  Zero half: 1
  RLT: 4

Explored 24 nodes (3212 simplex iterations) in 0.36 seconds (0.45 work units)
Thread count was 8 (of 8 available processors)

Solution count 9: 309303 310909 311180 ... 547346

Optimal solution found (tolerance 1.00e-04)
Best objective 3.093030000000e+05, best bound 3.093030000000e+05, gap 0.0000%

Gurobi 9.5.2 (mac64[arm]) logging started Mon May  1 22:03:30 2023

Set parameter LogFile to value "Java/output/special_iterative/scenario_seed_2_nJob_40_machineCount_2/mip_increment_2/log.txt"
Gurobi Optimizer version 9.5.2 build v9.5.2rc0 (mac64[arm])
Thread count: 8 physical cores, 8 logical processors, using up to 8 threads
Optimize a model with 2488 rows, 45076 columns and 505385 nonzeros
Model fingerprint: 0xea6e5d98
Variable types: 0 continuous, 45076 integer (45076 binary)
Coefficient statistics:
  Matrix range     [1e+00, 2e+02]
  Objective range  [2e+00, 4e+06]
  Bounds range     [1e+00, 1e+00]
  RHS range        [1e+00, 1e+00]

Warning: Completing partial solution with 44958 unfixed non-continuous variables out of 45076
User MIP start produced solution with objective 493349 (0.03s)
Loaded user MIP start with objective 493349

Presolve removed 106 rows and 4735 columns
Presolve time: 0.50s
Presolved: 2382 rows, 40341 columns, 454200 nonzeros
Variable types: 0 continuous, 40341 integer (40339 binary)
Found heuristic solution: objective 493191.00000

Root relaxation: objective 1.673965e+04, 27048 iterations, 3.81 seconds (9.68 work units)

    Nodes    |    Current Node    |     Objective Bounds      |     Work
 Expl Unexpl |  Obj  Depth IntInf | Incumbent    BestBd   Gap | It/Node Time

     0     0 16739.6479    0  415 493191.000 16739.6479  96.6%     -    5s
H    0     0                    491877.00000 16739.6479  96.6%     -    5s
H    0     0                    491060.00000 16739.6479  96.6%     -    5s
H    0     0                    259467.00000 16820.6471  93.5%     -    7s
     0     0 16820.6471    0  502 259467.000 16820.6471  93.5%     -    8s
H    0     0                    251769.00000 16820.6471  93.3%     -    8s
H    0     0                    251749.00000 16820.6471  93.3%     -    8s
H    0     0                    246889.00000 16820.6471  93.2%     -    8s
     0     0 16840.7383    0  502 246889.000 16840.7383  93.2%     -    9s
     0     0 16841.1805    0  500 246889.000 16841.1805  93.2%     -    9s
     0     0 16841.1909    0  499 246889.000 16841.1909  93.2%     -    9s
     0     0 16894.3823    0  598 246889.000 16894.3823  93.2%     -   11s
H    0     0                    246617.00000 16894.3823  93.1%     -   11s
H    0     0                    218276.00000 16894.3823  92.3%     -   11s
     0     0 16901.4209    0  620 218276.000 16901.4209  92.3%     -   12s
     0     0 16903.2721    0  598 218276.000 16903.2721  92.3%     -   12s
     0     0 16903.5478    0  601 218276.000 16903.5478  92.3%     -   12s
     0     0 16903.5478    0  604 218276.000 16903.5478  92.3%     -   12s
     0     0 17042.9019    0  625 218276.000 17042.9019  92.2%     -   15s
H    0     0                    217792.00000 17042.9019  92.2%     -   15s
     0     0 17057.0844    0  671 217792.000 17057.0844  92.2%     -   17s
     0     0 17060.8761    0  685 217792.000 17060.8761  92.2%     -   17s
     0     0 17061.0387    0  687 217792.000 17061.0387  92.2%     -   17s
     0     0 17061.0387    0  678 217792.000 17061.0387  92.2%     -   17s
     0     0 17134.7716    0  686 217792.000 17134.7716  92.1%     -   22s
     0     0 17163.3505    0  701 217792.000 17163.3505  92.1%     -   25s
     0     0 17169.2616    0  715 217792.000 17169.2616  92.1%     -   26s
     0     0 17169.4075    0  701 217792.000 17169.4075  92.1%     -   26s
     0     0 17169.4075    0  705 217792.000 17169.4075  92.1%     -   26s
     0     0 17238.7450    0  729 217792.000 17238.7450  92.1%     -   28s
H    0     0                    210082.00000 17238.7450  91.8%     -   29s
     0     0 17267.8609    0  762 210082.000 17267.8609  91.8%     -   33s
     0     0 17271.9545    0  769 210082.000 17271.9545  91.8%     -   34s
     0     0 17272.3751    0  749 210082.000 17272.3751  91.8%     -   34s
     0     0 17272.3887    0  765 210082.000 17272.3887  91.8%     -   35s
     0     0 17341.2392    0  744 210082.000 17341.2392  91.7%     -   38s
H    0     0                    210066.00000 17341.2392  91.7%     -   38s
H    0     0                    209999.00000 17341.2392  91.7%     -   38s
     0     0 17380.1886    0  726 209999.000 17380.1886  91.7%     -   43s
     0     0 17387.7778    0  770 209999.000 17387.7778  91.7%     -   44s
     0     0 17392.8293    0  791 209999.000 17392.8293  91.7%     -   45s
     0     0 17394.4934    0  780 209999.000 17394.4934  91.7%     -   46s
     0     0 17397.3087    0  779 209999.000 17397.3087  91.7%     -   47s
     0     0 17397.5003    0  785 209999.000 17397.5003  91.7%     -   47s
     0     0 17463.5190    0  808 209999.000 17463.5190  91.7%     -   55s
     0     0 17497.8416    0  768 209999.000 17497.8416  91.7%     -   61s
     0     0 17505.6417    0  784 209999.000 17505.6417  91.7%     -   62s
     0     0 17506.0056    0  782 209999.000 17506.0056  91.7%     -   63s
     0     0 17506.1978    0  781 209999.000 17506.1978  91.7%     -   63s
     0     0 17559.4412    0  809 209999.000 17559.4412  91.6%     -   66s
H    0     0                    207005.00000 17559.4412  91.5%     -   66s
     0     0 17573.2441    0  806 207005.000 17573.2441  91.5%     -   69s
     0     0 17574.3005    0  797 207005.000 17574.3005  91.5%     -   70s
     0     0 17574.4037    0  816 207005.000 17574.4037  91.5%     -   70s
     0     0 17768.7152    0  822 207005.000 17768.7152  91.4%     -   75s
H    0     0                    206946.00000 17768.7152  91.4%     -   75s
H    0     0                    203825.00000 17942.0587  91.2%     -   83s
H    0     0                    199403.00000 17942.0587  91.0%     -   83s
H    0     0                    198423.00000 17942.0587  91.0%     -   83s
H    0     0                    198410.00000 17942.0587  91.0%     -   83s
H    0     0                    156607.00000 17942.0587  88.5%     -   83s
H    0     0                    150704.00000 17942.0587  88.1%     -   83s
H    0     0                    147521.00000 17942.0587  87.8%     -   83s
H    0     0                    136487.00000 17942.0587  86.9%     -   83s
H    0     0                    134776.00000 17942.0587  86.7%     -   83s
H    0     0                    127068.00000 17942.0587  85.9%     -   83s
     0     0 17942.0587    0  828 127068.000 17942.0587  85.9%     -   84s
H    0     0                    126809.00000 17958.9470  85.8%     -   87s
H    0     0                    126780.00000 17958.9470  85.8%     -   87s
     0     0 17958.9470    0  824 126780.000 17958.9470  85.8%     -   87s
H    0     0                    93100.000000 17966.0623  80.7%     -   90s
     0     0 17966.0623    0  841 93100.0000 17966.0623  80.7%     -   90s
     0     0 17966.8143    0  843 93100.0000 17966.8143  80.7%     -   90s
     0     0 17967.5282    0  824 93100.0000 17967.5282  80.7%     -   91s
     0     0 17967.5547    0  838 93100.0000 17967.5547  80.7%     -   91s
H    0     0                    91284.000000 18150.4890  80.1%     -   95s
     0     0 18150.4890    0  826 91284.0000 18150.4890  80.1%     -   95s
H    0     0                    90408.000000 18150.4890  79.9%     -   96s
H    0     0                    89857.000000 18241.4168  79.7%     -  100s
H    0     0                    89213.000000 18241.4168  79.6%     -  100s
     0     0 18241.4168    0  827 89213.0000 18241.4168  79.6%     -  100s
     0     0 18252.0638    0  826 89213.0000 18252.0638  79.5%     -  102s
     0     0 18254.7812    0  835 89213.0000 18254.7812  79.5%     -  103s
     0     0 18255.2708    0  839 89213.0000 18255.2708  79.5%     -  104s
     0     0 18651.7183    0  859 89213.0000 18651.7183  79.1%     -  111s
H    0     0                    89167.000000 18719.0072  79.0%     -  120s
     0     0 18719.0072    0  844 89167.0000 18719.0072  79.0%     -  120s
H    0     0                    89103.000000 18784.3011  78.9%     -  122s
     0     0 18784.3011    0  845 89103.0000 18784.3011  78.9%     -  122s
H    0     0                    88964.000000 18802.9420  78.9%     -  125s
     0     0 18802.9420    0  895 88964.0000 18802.9420  78.9%     -  126s
     0     0 18804.0035    0  886 88964.0000 18804.0035  78.9%     -  126s
     0     0 18809.2900    0  886 88964.0000 18809.2900  78.9%     -  128s
     0     0 18811.7199    0  877 88964.0000 18811.7199  78.9%     -  128s
     0     0 18811.7504    0  900 88964.0000 18811.7504  78.9%     -  128s
     0     0 19597.2398    0  858 88964.0000 19597.2398  78.0%     -  135s
H    0     0                    88948.000000 19597.2398  78.0%     -  136s
H    0     0                    60769.000000 19882.1772  67.3%     -  148s
H    0     0                    60740.000000 19882.1772  67.3%     -  148s
     0     0 19882.1772    0  832 60740.0000 19882.1772  67.3%     -  149s
     0     0 19902.6124    0  847 60740.0000 19902.6124  67.2%     -  154s
     0     0 19907.0239    0  891 60740.0000 19907.0239  67.2%     -  156s
     0     0 19907.3272    0  871 60740.0000 19907.3272  67.2%     -  157s
     0     0 20663.8322    0  740 60740.0000 20663.8322  66.0%     -  162s
     0     0 20663.8322    0  450 60740.0000 20663.8322  66.0%     -  166s
     0     0 20663.8322    0  586 60740.0000 20663.8322  66.0%     -  169s
     0     0 20663.8322    0  672 60740.0000 20663.8322  66.0%     -  172s
H    0     0                    60677.000000 20663.8322  65.9%     -  175s
     0     0 20663.8322    0  735 60677.0000 20663.8322  65.9%     -  175s
     0     0 20790.1995    0  759 60677.0000 20790.1995  65.7%     -  177s
     0     0 20810.4694    0  739 60677.0000 20810.4694  65.7%     -  179s
     0     0 20813.4795    0  732 60677.0000 20813.4795  65.7%     -  179s
     0     0 20813.9040    0  733 60677.0000 20813.9040  65.7%     -  179s
     0     0 20814.5157    0  748 60677.0000 20814.5157  65.7%     -  179s
     0     0 20814.5534    0  752 60677.0000 20814.5534  65.7%     -  180s
     0     0 21299.0035    0  748 60677.0000 21299.0035  64.9%     -  182s
     0     0 21510.9147    0  774 60677.0000 21510.9147  64.5%     -  183s
     0     0 21562.7874    0  774 60677.0000 21562.7874  64.5%     -  184s
     0     0 21570.0689    0  798 60677.0000 21570.0689  64.5%     -  185s
     0     0 21570.4340    0  795 60677.0000 21570.4340  64.5%     -  185s
     0     0 22273.8396    0  833 60677.0000 22273.8396  63.3%     -  187s
     0     0 22483.7326    0  870 60677.0000 22483.7326  62.9%     -  190s
     0     0 22503.0064    0  865 60677.0000 22503.0064  62.9%     -  192s
     0     0 22504.8113    0  885 60677.0000 22504.8113  62.9%     -  192s
     0     0 23310.4637    0  807 60677.0000 23310.4637  61.6%     -  195s
H    0     0                    60662.000000 23310.4637  61.6%     -  195s
     0     0 23389.8163    0  809 60662.0000 23389.8163  61.4%     -  196s
     0     0 23392.7336    0  824 60662.0000 23392.7336  61.4%     -  196s
     0     0 24115.1082    0  856 60662.0000 24115.1082  60.2%     -  199s
H    0     0                    55748.000000 24115.1082  56.7%     -  202s
     0     0 24203.3354    0  866 55748.0000 24203.3354  56.6%     -  204s
     0     0 24205.6975    0  871 55748.0000 24205.6975  56.6%     -  205s
     0     0 24819.0355    0  855 55748.0000 24819.0355  55.5%     -  210s
H    0     0                    55732.000000 24819.0355  55.5%     -  210s
H    0     0                    55684.000000 24819.0355  55.4%     -  210s
H    0     0                    55332.000000 24819.0355  55.1%     -  210s
     0     0 24842.1225    0  905 55332.0000 24842.1225  55.1%     -  212s
     0     0 24846.5170    0  897 55332.0000 24846.5170  55.1%     -  212s
     0     0 25484.4298    0  905 55332.0000 25484.4298  53.9%     -  214s
H    0     0                    53966.000000 25484.4298  52.8%     -  216s
     0     0 25507.4597    0  930 53966.0000 25507.4597  52.7%     -  217s
     0     0 25512.5979    0  935 53966.0000 25512.5979  52.7%     -  218s
     0     0 26039.2379    0  896 53966.0000 26039.2379  51.7%     -  221s
H    0     0                    53946.000000 26039.2379  51.7%     -  221s
     0     0 26282.7432    0  915 53946.0000 26282.7432  51.3%     -  223s
     0     0 26327.0050    0  928 53946.0000 26327.0050  51.2%     -  224s
     0     0 26334.9571    0  959 53946.0000 26334.9571  51.2%     -  225s
     0     0 26348.7870    0  952 53946.0000 26348.7870  51.2%     -  226s
     0     0 26350.6570    0  977 53946.0000 26350.6570  51.2%     -  227s
     0     0 27393.2825    0  916 53946.0000 27393.2825  49.2%     -  230s
H    0     0                    53890.000000 27393.2825  49.2%     -  232s
     0     0 27534.4545    0  892 53890.0000 27534.4545  48.9%     -  236s
     0     0 27551.4287    0  906 53890.0000 27551.4287  48.9%     -  238s
     0     0 27552.6194    0  922 53890.0000 27552.6194  48.9%     -  239s
     0     0 28062.4551    0  906 53890.0000 28062.4551  47.9%     -  241s
H    0     0                    53874.000000 28062.4551  47.9%     -  241s
     0     0 28134.7390    0  882 53874.0000 28134.7390  47.8%     -  242s
     0     0 28158.6990    0  916 53874.0000 28158.6990  47.7%     -  243s
     0     0 28268.5395    0  902 53874.0000 28268.5395  47.5%     -  247s
     0     0 28276.5567    0  929 53874.0000 28276.5567  47.5%     -  248s
     0     0 28277.9952    0  921 53874.0000 28277.9952  47.5%     -  249s
     0     0 28757.1650    0  908 53874.0000 28757.1650  46.6%     -  253s
     0     0 28772.4105    0  883 53874.0000 28772.4105  46.6%     -  255s
     0     0 28777.5769    0  901 53874.0000 28777.5769  46.6%     -  256s
     0     0 29455.1456    0  916 53874.0000 29455.1456  45.3%     -  259s
     0     0 29479.0145    0  917 53874.0000 29479.0145  45.3%     -  261s
     0     0 29555.1691    0  947 53874.0000 29555.1691  45.1%     -  261s
     0     0 29574.4052    0  932 53874.0000 29574.4052  45.1%     -  264s
     0     0 29578.8006    0  915 53874.0000 29578.8006  45.1%     -  264s
     0     0 30043.6893    0  877 53874.0000 30043.6893  44.2%     -  269s
     0     0 30059.4631    0  885 53874.0000 30059.4631  44.2%     -  271s
     0     0 30074.8813    0  907 53874.0000 30074.8813  44.2%     -  272s
     0     0 30079.3981    0  944 53874.0000 30079.3981  44.2%     -  273s
     0     0 30471.7417    0  922 53874.0000 30471.7417  43.4%     -  276s
     0     0 30664.9618    0  942 53874.0000 30664.9618  43.1%     -  280s
     0     0 30673.8883    0  921 53874.0000 30673.8883  43.1%     -  281s
     0     0 30987.4792    0  903 53874.0000 30987.4792  42.5%     -  285s
     0     0 31000.3314    0  902 53874.0000 31000.3314  42.5%     -  287s
     0     0 31054.3930    0  909 53874.0000 31054.3930  42.4%     -  288s
     0     0 31056.2504    0  948 53874.0000 31056.2504  42.4%     -  288s
     0     0 31570.4064    0  934 53874.0000 31570.4064  41.4%     -  290s
     0     0 31599.8048    0  900 53874.0000 31599.8048  41.3%     -  292s
     0     0 31616.6626    0  952 53874.0000 31616.6626  41.3%     -  293s
     0     0 31658.5558    0  968 53874.0000 31658.5558  41.2%     -  295s
     0     0 31663.0337    0  967 53874.0000 31663.0337  41.2%     -  296s
     0     0 32507.0976    0  896 53874.0000 32507.0976  39.7%     -  301s
H    0     0                    53872.000000 32507.0976  39.7%     -  302s
     0     0 32634.0155    0  875 53872.0000 32634.0155  39.4%     -  306s
     0     0 32638.3929    0  934 53872.0000 32638.3929  39.4%     -  307s
     0     0 32924.3994    0  973 53872.0000 32924.3994  38.9%     -  311s
     0     0 32933.0402    0  941 53872.0000 32933.0402  38.9%     -  312s
     0     0 33480.2601    0  896 53872.0000 33480.2601  37.9%     -  318s
     0     0 33529.0871    0  866 53872.0000 33529.0871  37.8%     -  320s
     0     0 33545.8443    0  893 53872.0000 33545.8443  37.7%     -  321s
     0     0 33568.5524    0  924 53872.0000 33568.5524  37.7%     -  322s
     0     0 33571.7267    0  907 53872.0000 33571.7267  37.7%     -  323s
     0     0 34235.0399    0  839 53872.0000 34235.0399  36.5%     -  325s
     0     0 34462.4230    0  869 53872.0000 34462.4230  36.0%     -  328s
     0     0 34500.4376    0  916 53872.0000 34500.4376  36.0%     -  329s
     0     0 34505.4099    0  942 53872.0000 34505.4099  35.9%     -  330s
     0     0 35078.5806    0  905 53872.0000 35078.5806  34.9%     -  333s
     0     0 35176.3842    0  896 53872.0000 35176.3842  34.7%     -  338s
     0     0 35185.5059    0  908 53872.0000 35185.5059  34.7%     -  338s
     0     0 35585.9208    0  898 53872.0000 35585.9208  33.9%     -  340s
     0     0 35621.8252    0  906 53872.0000 35621.8252  33.9%     -  341s
     0     0 35622.6398    0  927 53872.0000 35622.6398  33.9%     -  342s
     0     0 36174.8447    0  911 53872.0000 36174.8447  32.9%     -  344s
     0     0 36224.8083    0  925 53872.0000 36224.8083  32.8%     -  349s
     0     0 36236.7504    0  951 53872.0000 36236.7504  32.7%     -  350s
     0     0 36759.7417    0  879 53872.0000 36759.7417  31.8%     -  356s
H    0     0                    53860.000000 36759.7417  31.7%     -  356s
     0     0 36908.0033    0  861 53860.0000 36908.0033  31.5%     -  358s
     0     0 36971.1434    0  901 53860.0000 36971.1434  31.4%     -  363s
     0     0 37032.6208    0  913 53860.0000 37032.6208  31.2%     -  364s
     0     0 37034.4884    0  942 53860.0000 37034.4884  31.2%     -  364s
     0     0 37736.0837    0  886 53860.0000 37736.0837  29.9%     -  368s
     0     0 37858.6057    0  894 53860.0000 37858.6057  29.7%     -  370s
     0     0 37861.0790    0  889 53860.0000 37861.0790  29.7%     -  371s
     0     0 38424.4771    0  922 53860.0000 38424.4771  28.7%     -  375s
H    0     0                    53295.000000 38424.4771  27.9%     -  375s
     0     0 38462.2987    0  896 53295.0000 38462.2987  27.8%     -  376s
     0     0 38488.6350    0  915 53295.0000 38488.6350  27.8%     -  378s
     0     0 38489.7367    0  925 53295.0000 38489.7367  27.8%     -  378s
     0     0 39105.5079    0  908 53295.0000 39105.5079  26.6%     -  383s
     0     0 39182.1639    0  878 53295.0000 39182.1639  26.5%     -  388s
     0     0 39183.2598    0  903 53295.0000 39183.2598  26.5%     -  388s
     0     0 40031.0259    0  858 53295.0000 40031.0259  24.9%     -  391s
H    0     0                    53265.000000 40031.0259  24.8%     -  391s
     0     0 40285.8704    0  918 53265.0000 40285.8704  24.4%     -  395s
     0     0 40331.9345    0  915 53265.0000 40331.9345  24.3%     -  396s
     0     0 40349.8442    0  929 53265.0000 40349.8442  24.2%     -  397s
     0     0 40682.1399    0  875 53265.0000 40682.1399  23.6%     -  401s
     0     0 40692.2798    0  914 53265.0000 40692.2798  23.6%     -  402s
     0     0 40952.5552    0  871 53265.0000 40952.5552  23.1%     -  405s
     0     0 40961.2893    0  903 53265.0000 40961.2893  23.1%     -  406s
     0     0 41146.5004    0  906 53265.0000 41146.5004  22.8%     -  409s
     0     0 41146.5004    0  853 53265.0000 41146.5004  22.8%     -  411s
     0     2 41147.0530    0  848 53265.0000 41147.0530  22.8%     -  425s
     1     4 41602.1333    1  825 53265.0000 41147.0530  22.8% 14275  432s
     3     8 41626.5245    2  848 53265.0000 41190.9399  22.7%  6804  436s
     7    16 41674.9862    3  944 53265.0000 41238.2689  22.6%  6172  443s
    15    24 41711.5481    4  932 53265.0000 41283.3177  22.5%  8093  457s
    23    32 41726.6080    5  907 53265.0000 41283.3177  22.5%  9637  471s
H   31    40                    53173.000000 41319.7595  22.3% 10903  480s
H   32    40                    45263.000000 41319.7595  8.71% 10858  480s
    39    46 41781.9469    6  959 45263.0000 41319.7595  8.71% 10518  492s
    47    52 42028.6856    7  962 45263.0000 41319.7595  8.71% 11869  500s
    57    59 41849.3958    7  959 45263.0000 41319.7595  8.71% 10835  518s
H   66    68                    45237.000000 41367.2411  8.55% 12179  524s
H   67    68                    45143.000000 41367.2411  8.36% 12064  524s
H   73    68                    44671.000000 41367.4865  7.40% 11520  524s
H   74    68                    43877.000000 41367.4865  5.72% 11451  524s
    75    75 41995.1162    8  885 43877.0000 41367.4865  5.72% 11462  536s
    85    85 41885.3772    9  947 43877.0000 41367.4865  5.72% 11351  543s
    95    96 41984.5563    9  954 43877.0000 41367.4865  5.72% 11097  552s
H   98    96                    43873.000000 41367.4865  5.71% 10974  552s
H  107   107                    43851.000000 41367.4865  5.66% 10841  563s
H  109   107                    43815.000000 41367.4865  5.59% 10735  563s
H  111   107                    43729.000000 41367.4865  5.40% 10599  563s
H  116   107                    43407.000000 41367.4865  4.70% 10833  563s
   118   111 41994.6823   11  779 43407.0000 41367.4865  4.70% 10801  569s
H  121   111                    43392.000000 41367.4865  4.67% 10726  569s
H  122   111                    43390.000000 41367.4865  4.66% 10716  569s
   130   118 41902.4244   12  803 43390.0000 41367.4865  4.66% 10340  580s
   142   126 41945.1337   13  562 43390.0000 41367.4865  4.66% 10459  592s
H  143   126                    43358.000000 41367.4865  4.59% 10386  592s
   157   130 42283.0964   15  822 43358.0000 41367.4865  4.59% 10473  597s

Cutting planes:
  Cover: 1
  Clique: 219
  MIR: 412
  StrongCG: 232
  GUB cover: 508
  Zero half: 2
  RLT: 1

Explored 163 nodes (2881139 simplex iterations) in 597.02 seconds (1624.98 work units)
Thread count was 8 (of 8 available processors)

Solution count 10: 43358 43390 43392 ... 44671

Time limit reached
Best objective 4.335800000000e+04, best bound 4.136800000000e+04, gap 4.5897%
